Maximize
 0
Subject To
 epc_0!1: +31.6608749814379 y_1!1_2!1 -98.32233229751535 y_1!2_2!1 +65.51169790624257 y_1!3_2!1 -98.30081567688036 y_1!4_2!1 +90.42717343082157 y_1!5_2!1 -16.85745819383581 y_1!6_2!1 -93.8786154785038 y_1!1_2!2 -14.397921305636444 y_1!2_2!2 +49.96628352076016 y_1!3_2!2 +82.00347740350108 y_1!4_2!2 -64.06931359400244 y_1!5_2!2 +39.59829660930609 y_1!6_2!2 -72.13990454946352 y_1!1_2!3 +19.709109098406927 y_1!2_2!3 -3.6045056500940404 y_1!3_2!3 +62.88669666094978 y_1!4_2!3 -1.1317310555571538 y_1!5_2!3 -88.19529390706613 y_1!6_2!3 +92.79743147702294 y_1!1_2!4 -88.86873473403219 y_1!2_2!4 -53.845513919037515 y_1!3_2!4 -8.218880322676455 y_1!4_2!4 +41.3502311318027 y_1!5_2!4 -3.6340386396409343 y_1!6_2!4 +84.93697341073641 y_1!1_2!5 +33.324557016948916 y_1!2_2!5 -68.69147692262663 y_1!3_2!5 -40.871470512414135 y_1!4_2!5 -93.78036731120751 y_1!5_2!5 +81.12350882696077 y_1!6_2!5 -25.26465911951496 y_1!1_2!6 -52.020405658625556 y_1!2_2!6 +38.25998618112004 y_1!3_2!6 +50.389049001916334 y_1!4_2!6 -33.41544318400322 y_1!5_2!6 -8.436777579570446 y_1!6_2!6 + lambda_0!1 - mu_0 = 0
 epc_0!2: -84.97640206099844 y_1!1_2!1 -63.42176487434252 y_1!2_2!1 -16.927879239502786 y_1!3_2!1 -6.9197454703008106 y_1!4_2!1 -58.851295842983234 y_1!5_2!1 -99.07417111020756 y_1!6_2!1 -70.82963717766935 y_1!1_2!2 -12.01989315734852 y_1!2_2!2 +23.98040936131565 y_1!3_2!2 +1.914154954652929 y_1!4_2!2 -74.8137866999294 y_1!5_2!2 -12.83818014165577 y_1!6_2!2 +94.75159794879718 y_1!1_2!3 +41.01271625971853 y_1!2_2!3 +17.757187983656507 y_1!3_2!3 -65.28840057313175 y_1!4_2!3 -78.53143327455513 y_1!5_2!3 +45.78618285627195 y_1!6_2!3 -9.171247394173392 y_1!1_2!4 +39.4267290400571 y_1!2_2!4 +50.71799696557798 y_1!3_2!4 +59.59261505506282 y_1!4_2!4 +48.80041595754051 y_1!5_2!4 +44.62239277182613 y_1!6_2!4 +67.50373932856058 y_1!1_2!5 -32.52448009159086 y_1!2_2!5 +19.654725290157813 y_1!3_2!5 -82.66444853946047 y_1!4_2!5 +39.5196174999198 y_1!5_2!5 -12.843973943894426 y_1!6_2!5 +69.47544176942742 y_1!1_2!6 -89.16802723909403 y_1!2_2!6 +62.26450485259855 y_1!3_2!6 -95.9686088160064 y_1!4_2!6 -30.23888809347794 y_1!5_2!6 +4.322769757701735 y_1!6_2!6 + lambda_0!2 - mu_0 = 0
 epc_0!3: -63.26816728547045 y_1!1_2!1 +53.72891961816754 y_1!2_2!1 -18.591542269206613 y_1!3_2!1 +60.29420783659563 y_1!4_2!1 +24.792955960938556 y_1!5_2!1 -18.82625550615873 y_1!6_2!1 -8.289844184565197 y_1!1_2!2 +29.6145054714448 y_1!2_2!2 +23.687392350546418 y_1!3_2!2 +49.7506211739385 y_1!4_2!2 -5.7844050442675865 y_1!5_2!2 -24.523945503194994 y_1!6_2!2 +88.74364341361013 y_1!1_2!3 -17.36969191459052 y_1!2_2!3 +90.0127465759185 y_1!3_2!3 -54.09536073356072 y_1!4_2!3 -78.74841561737855 y_1!5_2!3 -10.584714438381695 y_1!6_2!3 +92.91701130864584 y_1!1_2!4 -21.320660671522987 y_1!2_2!4 -26.920797149734625 y_1!3_2!4 -58.23212928753521 y_1!4_2!4 +57.214197617804786 y_1!5_2!4 +28.700106931659747 y_1!6_2!4 +50.080831081985934 y_1!1_2!5 -79.31865415598324 y_1!2_2!5 -9.476894189578374 y_1!3_2!5 -15.423448134909947 y_1!4_2!5 +49.45315375290119 y_1!5_2!5 -66.9495460907682 y_1!6_2!5 +11.933975738051302 y_1!1_2!6 +97.09418019723162 y_1!2_2!6 +16.195184216899165 y_1!3_2!6 +45.19742448154372 y_1!4_2!6 +65.57910193661846 y_1!5_2!6 -7.785716438981808 y_1!6_2!6 + lambda_0!3 - mu_0 = 0
 epc_0!4: +17.099203294356485 y_1!1_2!1 -46.763707307587055 y_1!2_2!1 -70.57414031700635 y_1!3_2!1 +92.47203690535181 y_1!4_2!1 +63.6506501767777 y_1!5_2!1 -55.02402407174931 y_1!6_2!1 -21.281137263926 y_1!1_2!2 -94.47173151845094 y_1!2_2!2 -61.991375303746146 y_1!3_2!2 +76.1551874755747 y_1!4_2!2 +14.625060827973527 y_1!5_2!2 -3.975259587412097 y_1!6_2!2 +56.45187749021224 y_1!1_2!3 -12.708249473524063 y_1!2_2!3 +39.21355156898994 y_1!3_2!3 +49.5400404898692 y_1!4_2!3 -47.597159794679 y_1!5_2!3 -7.303933368697784 y_1!6_2!3 -89.22006226458343 y_1!1_2!4 +86.76477170873099 y_1!2_2!4 +63.25110800026059 y_1!3_2!4 -73.53490815818463 y_1!4_2!4 +81.28625462926442 y_1!5_2!4 +59.819039060437404 y_1!6_2!4 -49.36362703854484 y_1!1_2!5 +11.97488608441104 y_1!2_2!5 +62.96347382242644 y_1!3_2!5 +49.021576259258126 y_1!4_2!5 +8.09707148192173 y_1!5_2!5 -28.72208891702725 y_1!6_2!5 +2.9828794905250504 y_1!1_2!6 +1.516819226956727 y_1!2_2!6 -40.00897272015362 y_1!3_2!6 +40.811395947136134 y_1!4_2!6 -4.897493001617946 y_1!5_2!6 +3.1660997916144566 y_1!6_2!6 + lambda_0!4 - mu_0 = 0
 epc_0!5: +29.515576565502954 y_1!1_2!1 -12.753961412770494 y_1!2_2!1 +11.03471211363653 y_1!3_2!1 +86.0243680694974 y_1!4_2!1 +94.57381825582652 y_1!5_2!1 +67.69741735416727 y_1!6_2!1 +51.4952097230406 y_1!1_2!2 +86.8321009088883 y_1!2_2!2 +39.08425205412996 y_1!3_2!2 -88.01459675784729 y_1!4_2!2 +3.6391160603131993 y_1!5_2!2 -52.595744339707196 y_1!6_2!2 +75.02426500774271 y_1!1_2!3 +59.09499235589067 y_1!2_2!3 -32.5846588474745 y_1!3_2!3 -10.77163355058397 y_1!4_2!3 +84.75234814742944 y_1!5_2!3 +42.260341007681745 y_1!6_2!3 -5.542952053699452 y_1!1_2!4 +6.812790888170312 y_1!2_2!4 -20.740510064657627 y_1!3_2!4 -60.72760803099146 y_1!4_2!4 -95.48219546155316 y_1!5_2!4 +78.22998027271433 y_1!6_2!4 +47.20422743026634 y_1!1_2!5 -16.70319710128838 y_1!2_2!5 +22.76962609210345 y_1!3_2!5 -2.501915656127224 y_1!4_2!5 -82.61232226817303 y_1!5_2!5 -80.64164335545725 y_1!6_2!5 -14.380970302964414 y_1!1_2!6 -61.04276838820621 y_1!2_2!6 +7.324741880171601 y_1!3_2!6 +41.64811432621053 y_1!4_2!6 +12.697452675428082 y_1!5_2!6 +13.796657118521495 y_1!6_2!6 + lambda_0!5 - mu_0 = 0
 epc_0!6: -8.746697776134326 y_1!1_2!1 -72.19972099711786 y_1!2_2!1 -96.153684347055 y_1!3_2!1 +57.784644529419836 y_1!4_2!1 -62.74427902857938 y_1!5_2!1 +50.82938902098627 y_1!6_2!1 -36.99889646076899 y_1!1_2!2 -65.36553691640626 y_1!2_2!2 +67.62677292246454 y_1!3_2!2 +83.6352671029606 y_1!4_2!2 +75.03073459323178 y_1!5_2!2 +75.31873890033424 y_1!6_2!2 +60.188675400847586 y_1!1_2!3 -96.1566897150953 y_1!2_2!3 -36.32155057102546 y_1!3_2!3 +75.70017021696648 y_1!4_2!3 +29.887160574342403 y_1!5_2!3 +16.255059014804615 y_1!6_2!3 +36.50947349095125 y_1!1_2!4 +51.3611295031933 y_1!2_2!4 -41.077593628177134 y_1!3_2!4 -5.164736528411922 y_1!4_2!4 +20.248266384935704 y_1!5_2!4 +70.44151067871346 y_1!6_2!4 +16.39418344787029 y_1!1_2!5 -73.87288930793866 y_1!2_2!5 -24.916939146956736 y_1!3_2!5 +58.60795313475805 y_1!4_2!5 +8.867374515398382 y_1!5_2!5 +58.001994020116854 y_1!6_2!5 +54.34395239428099 y_1!1_2!6 -94.9393305256132 y_1!2_2!6 +53.26415722239574 y_1!3_2!6 -92.35006406347455 y_1!4_2!6 +25.9607595536429 y_1!5_2!6 -51.515925170878596 y_1!6_2!6 + lambda_0!6 - mu_0 = 0
 dc_0: x_0!1 + x_0!2 + x_0!3 + x_0!4 + x_0!5 + x_0!6 = 1
 bc_0!1: lambda_0!1 +298.5166534610409 x_0!1 <= 298.5166534610409
 bc_0!2: lambda_0!2 +298.5166534610409 x_0!2 <= 298.5166534610409
 bc_0!3: lambda_0!3 +298.5166534610409 x_0!3 <= 298.5166534610409
 bc_0!4: lambda_0!4 +298.5166534610409 x_0!4 <= 298.5166534610409
 bc_0!5: lambda_0!5 +298.5166534610409 x_0!5 <= 298.5166534610409
 bc_0!6: lambda_0!6 +298.5166534610409 x_0!6 <= 298.5166534610409
 sum_0!1: y_1!1_2!1 - x_1!1 - x_2!1 >= -1
 idk_0!1!1: y_1!1_2!1 - x_1!1 <= 0
 idk_0!1!2: y_1!1_2!1 - x_2!1 <= 0
 sum_0!2: y_1!2_2!1 - x_1!2 - x_2!1 >= -1
 idk_0!2!1: y_1!2_2!1 - x_1!2 <= 0
 idk_0!2!2: y_1!2_2!1 - x_2!1 <= 0
 sum_0!3: y_1!3_2!1 - x_1!3 - x_2!1 >= -1
 idk_0!3!1: y_1!3_2!1 - x_1!3 <= 0
 idk_0!3!2: y_1!3_2!1 - x_2!1 <= 0
 sum_0!4: y_1!4_2!1 - x_1!4 - x_2!1 >= -1
 idk_0!4!1: y_1!4_2!1 - x_1!4 <= 0
 idk_0!4!2: y_1!4_2!1 - x_2!1 <= 0
 sum_0!5: y_1!5_2!1 - x_1!5 - x_2!1 >= -1
 idk_0!5!1: y_1!5_2!1 - x_1!5 <= 0
 idk_0!5!2: y_1!5_2!1 - x_2!1 <= 0
 sum_0!6: y_1!6_2!1 - x_1!6 - x_2!1 >= -1
 idk_0!6!1: y_1!6_2!1 - x_1!6 <= 0
 idk_0!6!2: y_1!6_2!1 - x_2!1 <= 0
 sum_0!7: y_1!1_2!2 - x_1!1 - x_2!2 >= -1
 idk_0!7!1: y_1!1_2!2 - x_1!1 <= 0
 idk_0!7!2: y_1!1_2!2 - x_2!2 <= 0
 sum_0!8: y_1!2_2!2 - x_1!2 - x_2!2 >= -1
 idk_0!8!1: y_1!2_2!2 - x_1!2 <= 0
 idk_0!8!2: y_1!2_2!2 - x_2!2 <= 0
 sum_0!9: y_1!3_2!2 - x_1!3 - x_2!2 >= -1
 idk_0!9!1: y_1!3_2!2 - x_1!3 <= 0
 idk_0!9!2: y_1!3_2!2 - x_2!2 <= 0
 sum_0!10: y_1!4_2!2 - x_1!4 - x_2!2 >= -1
 idk_0!10!1: y_1!4_2!2 - x_1!4 <= 0
 idk_0!10!2: y_1!4_2!2 - x_2!2 <= 0
 sum_0!11: y_1!5_2!2 - x_1!5 - x_2!2 >= -1
 idk_0!11!1: y_1!5_2!2 - x_1!5 <= 0
 idk_0!11!2: y_1!5_2!2 - x_2!2 <= 0
 sum_0!12: y_1!6_2!2 - x_1!6 - x_2!2 >= -1
 idk_0!12!1: y_1!6_2!2 - x_1!6 <= 0
 idk_0!12!2: y_1!6_2!2 - x_2!2 <= 0
 sum_0!13: y_1!1_2!3 - x_1!1 - x_2!3 >= -1
 idk_0!13!1: y_1!1_2!3 - x_1!1 <= 0
 idk_0!13!2: y_1!1_2!3 - x_2!3 <= 0
 sum_0!14: y_1!2_2!3 - x_1!2 - x_2!3 >= -1
 idk_0!14!1: y_1!2_2!3 - x_1!2 <= 0
 idk_0!14!2: y_1!2_2!3 - x_2!3 <= 0
 sum_0!15: y_1!3_2!3 - x_1!3 - x_2!3 >= -1
 idk_0!15!1: y_1!3_2!3 - x_1!3 <= 0
 idk_0!15!2: y_1!3_2!3 - x_2!3 <= 0
 sum_0!16: y_1!4_2!3 - x_1!4 - x_2!3 >= -1
 idk_0!16!1: y_1!4_2!3 - x_1!4 <= 0
 idk_0!16!2: y_1!4_2!3 - x_2!3 <= 0
 sum_0!17: y_1!5_2!3 - x_1!5 - x_2!3 >= -1
 idk_0!17!1: y_1!5_2!3 - x_1!5 <= 0
 idk_0!17!2: y_1!5_2!3 - x_2!3 <= 0
 sum_0!18: y_1!6_2!3 - x_1!6 - x_2!3 >= -1
 idk_0!18!1: y_1!6_2!3 - x_1!6 <= 0
 idk_0!18!2: y_1!6_2!3 - x_2!3 <= 0
 sum_0!19: y_1!1_2!4 - x_1!1 - x_2!4 >= -1
 idk_0!19!1: y_1!1_2!4 - x_1!1 <= 0
 idk_0!19!2: y_1!1_2!4 - x_2!4 <= 0
 sum_0!20: y_1!2_2!4 - x_1!2 - x_2!4 >= -1
 idk_0!20!1: y_1!2_2!4 - x_1!2 <= 0
 idk_0!20!2: y_1!2_2!4 - x_2!4 <= 0
 sum_0!21: y_1!3_2!4 - x_1!3 - x_2!4 >= -1
 idk_0!21!1: y_1!3_2!4 - x_1!3 <= 0
 idk_0!21!2: y_1!3_2!4 - x_2!4 <= 0
 sum_0!22: y_1!4_2!4 - x_1!4 - x_2!4 >= -1
 idk_0!22!1: y_1!4_2!4 - x_1!4 <= 0
 idk_0!22!2: y_1!4_2!4 - x_2!4 <= 0
 sum_0!23: y_1!5_2!4 - x_1!5 - x_2!4 >= -1
 idk_0!23!1: y_1!5_2!4 - x_1!5 <= 0
 idk_0!23!2: y_1!5_2!4 - x_2!4 <= 0
 sum_0!24: y_1!6_2!4 - x_1!6 - x_2!4 >= -1
 idk_0!24!1: y_1!6_2!4 - x_1!6 <= 0
 idk_0!24!2: y_1!6_2!4 - x_2!4 <= 0
 sum_0!25: y_1!1_2!5 - x_1!1 - x_2!5 >= -1
 idk_0!25!1: y_1!1_2!5 - x_1!1 <= 0
 idk_0!25!2: y_1!1_2!5 - x_2!5 <= 0
 sum_0!26: y_1!2_2!5 - x_1!2 - x_2!5 >= -1
 idk_0!26!1: y_1!2_2!5 - x_1!2 <= 0
 idk_0!26!2: y_1!2_2!5 - x_2!5 <= 0
 sum_0!27: y_1!3_2!5 - x_1!3 - x_2!5 >= -1
 idk_0!27!1: y_1!3_2!5 - x_1!3 <= 0
 idk_0!27!2: y_1!3_2!5 - x_2!5 <= 0
 sum_0!28: y_1!4_2!5 - x_1!4 - x_2!5 >= -1
 idk_0!28!1: y_1!4_2!5 - x_1!4 <= 0
 idk_0!28!2: y_1!4_2!5 - x_2!5 <= 0
 sum_0!29: y_1!5_2!5 - x_1!5 - x_2!5 >= -1
 idk_0!29!1: y_1!5_2!5 - x_1!5 <= 0
 idk_0!29!2: y_1!5_2!5 - x_2!5 <= 0
 sum_0!30: y_1!6_2!5 - x_1!6 - x_2!5 >= -1
 idk_0!30!1: y_1!6_2!5 - x_1!6 <= 0
 idk_0!30!2: y_1!6_2!5 - x_2!5 <= 0
 sum_0!31: y_1!1_2!6 - x_1!1 - x_2!6 >= -1
 idk_0!31!1: y_1!1_2!6 - x_1!1 <= 0
 idk_0!31!2: y_1!1_2!6 - x_2!6 <= 0
 sum_0!32: y_1!2_2!6 - x_1!2 - x_2!6 >= -1
 idk_0!32!1: y_1!2_2!6 - x_1!2 <= 0
 idk_0!32!2: y_1!2_2!6 - x_2!6 <= 0
 sum_0!33: y_1!3_2!6 - x_1!3 - x_2!6 >= -1
 idk_0!33!1: y_1!3_2!6 - x_1!3 <= 0
 idk_0!33!2: y_1!3_2!6 - x_2!6 <= 0
 sum_0!34: y_1!4_2!6 - x_1!4 - x_2!6 >= -1
 idk_0!34!1: y_1!4_2!6 - x_1!4 <= 0
 idk_0!34!2: y_1!4_2!6 - x_2!6 <= 0
 sum_0!35: y_1!5_2!6 - x_1!5 - x_2!6 >= -1
 idk_0!35!1: y_1!5_2!6 - x_1!5 <= 0
 idk_0!35!2: y_1!5_2!6 - x_2!6 <= 0
 sum_0!36: y_1!6_2!6 - x_1!6 - x_2!6 >= -1
 idk_0!36!1: y_1!6_2!6 - x_1!6 <= 0
 idk_0!36!2: y_1!6_2!6 - x_2!6 <= 0
 epc_1!1: +49.050277588403134 y_0!1_2!1 -18.362389275622036 y_0!2_2!1 +40.78061491049817 y_0!3_2!1 -36.995040015002715 y_0!4_2!1 +32.422808439685156 y_0!5_2!1 -56.616464769786056 y_0!6_2!1 -30.319446563210846 y_0!1_2!2 -18.218162411648706 y_0!2_2!2 -63.577567116043895 y_0!3_2!2 -20.055254343660664 y_0!4_2!2 -91.74963685798735 y_0!5_2!2 -26.9535958041875 y_0!6_2!2 +94.53337219553313 y_0!1_2!3 -41.30226309181613 y_0!2_2!3 -28.436689746998894 y_0!3_2!3 -27.303646216307115 y_0!4_2!3 -20.452434140189865 y_0!5_2!3 +19.394811007065854 y_0!6_2!3 -73.882163618065 y_0!1_2!4 -85.86142366198672 y_0!2_2!4 +1.0314191548697949 y_0!3_2!4 -78.4800304362691 y_0!4_2!4 -50.261168572795256 y_0!5_2!4 -43.79469445751134 y_0!6_2!4 +29.999459339787393 y_0!1_2!5 -77.70338294815227 y_0!2_2!5 -26.599839372480943 y_0!3_2!5 -38.862380605884475 y_0!4_2!5 +51.42261539458292 y_0!5_2!5 +84.09427171769426 y_0!6_2!5 +53.15355040795927 y_0!1_2!6 +70.40920314776841 y_0!2_2!6 +38.18860244945844 y_0!3_2!6 -34.76991104123792 y_0!4_2!6 -14.406346816792265 y_0!5_2!6 -83.9425219686504 y_0!6_2!6 + lambda_1!1 - mu_1 = 0
 epc_1!2: +8.478381954036251 y_0!1_2!1 -63.57053690169974 y_0!2_2!1 -19.45664605756366 y_0!3_2!1 +75.90396716359558 y_0!4_2!1 +69.71533429005817 y_0!5_2!1 -52.82854391388783 y_0!6_2!1 -92.77719772564757 y_0!1_2!2 +42.86893108668946 y_0!2_2!2 -90.03635370249192 y_0!3_2!2 -38.96462386301791 y_0!4_2!2 +16.158896499935423 y_0!5_2!2 -7.693107429375388 y_0!6_2!2 -80.35846552812077 y_0!1_2!3 -47.6527369782374 y_0!2_2!3 -81.13200238201286 y_0!3_2!3 -95.93629578793048 y_0!4_2!3 +71.84462618280767 y_0!5_2!3 +8.539574587388017 y_0!6_2!3 +13.792077526342126 y_0!1_2!4 -34.07087081992674 y_0!2_2!4 +25.087012657086433 y_0!3_2!4 -19.684834920305704 y_0!4_2!4 -81.3620527100376 y_0!5_2!4 +37.84626350682862 y_0!6_2!4 +25.10258359822224 y_0!1_2!5 -82.25492379757486 y_0!2_2!5 -57.4763777613881 y_0!3_2!5 -21.217505063496603 y_0!4_2!5 +87.18480752700256 y_0!5_2!5 +36.02300463223378 y_0!6_2!5 +11.928340539527397 y_0!1_2!6 +80.76165189968691 y_0!2_2!6 -46.89666356251123 y_0!3_2!6 -12.915877641019094 y_0!4_2!6 +16.921631506631442 y_0!5_2!6 -55.45338467687084 y_0!6_2!6 + lambda_1!2 - mu_1 = 0
 epc_1!3: -79.35814109051526 y_0!1_2!1 +96.33612275779683 y_0!2_2!1 +40.708488075238904 y_0!3_2!1 +45.63263589158794 y_0!4_2!1 -17.680181628341217 y_0!5_2!1 +61.5674382330439 y_0!6_2!1 -35.97271284468732 y_0!1_2!2 -9.349462482788311 y_0!2_2!2 +7.779818322107303 y_0!3_2!2 +44.20321802433051 y_0!4_2!2 +35.575760857017826 y_0!5_2!2 +19.871867606763715 y_0!6_2!2 +23.690792369456858 y_0!1_2!3 +35.82919862487037 y_0!2_2!3 -70.96622722850276 y_0!3_2!3 +33.57810457512596 y_0!4_2!3 -52.77864812573445 y_0!5_2!3 +83.18315378258515 y_0!6_2!3 +97.01196790731586 y_0!1_2!4 -13.52370677309385 y_0!2_2!4 +94.94931009854082 y_0!3_2!4 +35.68017484745516 y_0!4_2!4 +77.233622864956 y_0!5_2!4 -14.961922918318919 y_0!6_2!4 +32.810938113808504 y_0!1_2!5 +53.790647662449175 y_0!2_2!5 +5.751493880002627 y_0!3_2!5 -95.74428736140821 y_0!4_2!5 +72.65896734570765 y_0!5_2!5 +9.562187626991857 y_0!6_2!5 -40.2002353971902 y_0!1_2!6 -38.96786681347646 y_0!2_2!6 -24.238611039269543 y_0!3_2!6 -78.87808179972593 y_0!4_2!6 +82.00301685751487 y_0!5_2!6 -51.11732670354425 y_0!6_2!6 + lambda_1!3 - mu_1 = 0
 epc_1!4: -62.37819002226524 y_0!1_2!1 +26.60175523305955 y_0!2_2!1 -63.48569049774111 y_0!3_2!1 -46.27283897039221 y_0!4_2!1 -54.55285436771307 y_0!5_2!1 -49.16399962859628 y_0!6_2!1 -29.255617954635 y_0!1_2!2 +22.540882994111428 y_0!2_2!2 -49.01379147454168 y_0!3_2!2 -90.69262693076988 y_0!4_2!2 +78.68477798379348 y_0!5_2!2 +74.30887338536778 y_0!6_2!2 -78.86815701009593 y_0!1_2!3 +31.323445742465225 y_0!2_2!3 +67.01800667540363 y_0!3_2!3 +36.350162936415956 y_0!4_2!3 -21.833173437042348 y_0!5_2!3 -44.33329881685051 y_0!6_2!3 +98.3387703380784 y_0!1_2!4 +0.27279346822371053 y_0!2_2!4 +33.18095583540551 y_0!3_2!4 -68.8932492117446 y_0!4_2!4 -99.26444649132358 y_0!5_2!4 -57.646566388237574 y_0!6_2!4 -65.06506468672599 y_0!1_2!5 +92.05589278134914 y_0!2_2!5 -59.352518509616246 y_0!3_2!5 -54.51904209998077 y_0!4_2!5 +9.295371793693619 y_0!5_2!5 -38.62760507976078 y_0!6_2!5 +52.62067676844043 y_0!1_2!6 +20.83810268234312 y_0!2_2!6 +52.370860271724865 y_0!3_2!6 +81.92927129729065 y_0!4_2!6 -10.59170090225831 y_0!5_2!6 +11.846116968378468 y_0!6_2!6 + lambda_1!4 - mu_1 = 0
 epc_1!5: -6.8044329448826915 y_0!1_2!1 -70.06641412598951 y_0!2_2!1 +9.360700126560829 y_0!3_2!1 +3.4536030715137827 y_0!4_2!1 -17.59859010307987 y_0!5_2!1 -98.42584206337293 y_0!6_2!1 +61.012754384653846 y_0!1_2!2 +79.89876613123633 y_0!2_2!2 +63.744813149000606 y_0!3_2!2 -12.611747152416726 y_0!4_2!2 -37.99254612584837 y_0!5_2!2 +14.41165913477785 y_0!6_2!2 -59.782875406074034 y_0!1_2!3 -76.12671941797885 y_0!2_2!3 -32.959587271709594 y_0!3_2!3 +58.0689008131441 y_0!4_2!3 +11.321150153214205 y_0!5_2!3 +49.15003998320168 y_0!6_2!3 +14.50103702680829 y_0!1_2!4 -16.84061292158951 y_0!2_2!4 -54.15294451842918 y_0!3_2!4 -31.006951627104357 y_0!4_2!4 -59.9161422446378 y_0!5_2!4 +63.43794961025057 y_0!6_2!4 -83.16325046793034 y_0!1_2!5 -30.3618514659685 y_0!2_2!5 -8.397788400491308 y_0!3_2!5 +93.9723554864745 y_0!4_2!5 -68.26211472945785 y_0!5_2!5 -58.37674507778816 y_0!6_2!5 -4.538765267263116 y_0!1_2!6 -98.45092364394496 y_0!2_2!6 -18.589566428933153 y_0!3_2!6 +37.32192730684463 y_0!4_2!6 +55.14594194486844 y_0!5_2!6 -93.59387771051124 y_0!6_2!6 + lambda_1!5 - mu_1 = 0
 epc_1!6: +29.115484590072555 y_0!1_2!1 -37.28442514653645 y_0!2_2!1 +41.06331220922556 y_0!3_2!1 -76.56546380102589 y_0!4_2!1 -68.24344615935149 y_0!5_2!1 +89.68856216482294 y_0!6_2!1 +30.8921257808839 y_0!1_2!2 -7.838912025347923 y_0!2_2!2 -52.9033428990058 y_0!3_2!2 +37.12803982530045 y_0!4_2!2 +9.58029277420431 y_0!5_2!2 +8.310785842526002 y_0!6_2!2 +73.41012119729123 y_0!1_2!3 -74.05388930270935 y_0!2_2!3 -62.417499920539974 y_0!3_2!3 -70.8119420245682 y_0!4_2!3 +90.30000120305849 y_0!5_2!3 +18.095283323669136 y_0!6_2!3 +14.4251221858338 y_0!1_2!4 +85.56603696875044 y_0!2_2!4 -52.450040077495785 y_0!3_2!4 +43.99439604666341 y_0!4_2!4 +69.74107020935955 y_0!5_2!4 +17.891202999000285 y_0!6_2!4 +49.21270831407446 y_0!1_2!5 +0.38180150778075017 y_0!2_2!5 -26.410449799144132 y_0!3_2!5 +7.561505640415561 y_0!4_2!5 +81.99120593914378 y_0!5_2!5 +87.1828817312167 y_0!6_2!5 +48.174078746306805 y_0!1_2!6 -14.860452273483872 y_0!2_2!6 +20.900710414955228 y_0!3_2!6 +45.410516658524216 y_0!4_2!6 +18.8643533944705 y_0!5_2!6 -87.13266009974666 y_0!6_2!6 + lambda_1!6 - mu_1 = 0
 dc_1: x_1!1 + x_1!2 + x_1!3 + x_1!4 + x_1!5 + x_1!6 = 1
 bc_1!1: lambda_1!1 +298.5166534610409 x_1!1 <= 298.5166534610409
 bc_1!2: lambda_1!2 +298.5166534610409 x_1!2 <= 298.5166534610409
 bc_1!3: lambda_1!3 +298.5166534610409 x_1!3 <= 298.5166534610409
 bc_1!4: lambda_1!4 +298.5166534610409 x_1!4 <= 298.5166534610409
 bc_1!5: lambda_1!5 +298.5166534610409 x_1!5 <= 298.5166534610409
 bc_1!6: lambda_1!6 +298.5166534610409 x_1!6 <= 298.5166534610409
 sum_1!1: y_0!1_2!1 - x_0!1 - x_2!1 >= -1
 idk_1!1!0: y_0!1_2!1 - x_0!1 <= 0
 idk_1!1!2: y_0!1_2!1 - x_2!1 <= 0
 sum_1!2: y_0!2_2!1 - x_0!2 - x_2!1 >= -1
 idk_1!2!0: y_0!2_2!1 - x_0!2 <= 0
 idk_1!2!2: y_0!2_2!1 - x_2!1 <= 0
 sum_1!3: y_0!3_2!1 - x_0!3 - x_2!1 >= -1
 idk_1!3!0: y_0!3_2!1 - x_0!3 <= 0
 idk_1!3!2: y_0!3_2!1 - x_2!1 <= 0
 sum_1!4: y_0!4_2!1 - x_0!4 - x_2!1 >= -1
 idk_1!4!0: y_0!4_2!1 - x_0!4 <= 0
 idk_1!4!2: y_0!4_2!1 - x_2!1 <= 0
 sum_1!5: y_0!5_2!1 - x_0!5 - x_2!1 >= -1
 idk_1!5!0: y_0!5_2!1 - x_0!5 <= 0
 idk_1!5!2: y_0!5_2!1 - x_2!1 <= 0
 sum_1!6: y_0!6_2!1 - x_0!6 - x_2!1 >= -1
 idk_1!6!0: y_0!6_2!1 - x_0!6 <= 0
 idk_1!6!2: y_0!6_2!1 - x_2!1 <= 0
 sum_1!7: y_0!1_2!2 - x_0!1 - x_2!2 >= -1
 idk_1!7!0: y_0!1_2!2 - x_0!1 <= 0
 idk_1!7!2: y_0!1_2!2 - x_2!2 <= 0
 sum_1!8: y_0!2_2!2 - x_0!2 - x_2!2 >= -1
 idk_1!8!0: y_0!2_2!2 - x_0!2 <= 0
 idk_1!8!2: y_0!2_2!2 - x_2!2 <= 0
 sum_1!9: y_0!3_2!2 - x_0!3 - x_2!2 >= -1
 idk_1!9!0: y_0!3_2!2 - x_0!3 <= 0
 idk_1!9!2: y_0!3_2!2 - x_2!2 <= 0
 sum_1!10: y_0!4_2!2 - x_0!4 - x_2!2 >= -1
 idk_1!10!0: y_0!4_2!2 - x_0!4 <= 0
 idk_1!10!2: y_0!4_2!2 - x_2!2 <= 0
 sum_1!11: y_0!5_2!2 - x_0!5 - x_2!2 >= -1
 idk_1!11!0: y_0!5_2!2 - x_0!5 <= 0
 idk_1!11!2: y_0!5_2!2 - x_2!2 <= 0
 sum_1!12: y_0!6_2!2 - x_0!6 - x_2!2 >= -1
 idk_1!12!0: y_0!6_2!2 - x_0!6 <= 0
 idk_1!12!2: y_0!6_2!2 - x_2!2 <= 0
 sum_1!13: y_0!1_2!3 - x_0!1 - x_2!3 >= -1
 idk_1!13!0: y_0!1_2!3 - x_0!1 <= 0
 idk_1!13!2: y_0!1_2!3 - x_2!3 <= 0
 sum_1!14: y_0!2_2!3 - x_0!2 - x_2!3 >= -1
 idk_1!14!0: y_0!2_2!3 - x_0!2 <= 0
 idk_1!14!2: y_0!2_2!3 - x_2!3 <= 0
 sum_1!15: y_0!3_2!3 - x_0!3 - x_2!3 >= -1
 idk_1!15!0: y_0!3_2!3 - x_0!3 <= 0
 idk_1!15!2: y_0!3_2!3 - x_2!3 <= 0
 sum_1!16: y_0!4_2!3 - x_0!4 - x_2!3 >= -1
 idk_1!16!0: y_0!4_2!3 - x_0!4 <= 0
 idk_1!16!2: y_0!4_2!3 - x_2!3 <= 0
 sum_1!17: y_0!5_2!3 - x_0!5 - x_2!3 >= -1
 idk_1!17!0: y_0!5_2!3 - x_0!5 <= 0
 idk_1!17!2: y_0!5_2!3 - x_2!3 <= 0
 sum_1!18: y_0!6_2!3 - x_0!6 - x_2!3 >= -1
 idk_1!18!0: y_0!6_2!3 - x_0!6 <= 0
 idk_1!18!2: y_0!6_2!3 - x_2!3 <= 0
 sum_1!19: y_0!1_2!4 - x_0!1 - x_2!4 >= -1
 idk_1!19!0: y_0!1_2!4 - x_0!1 <= 0
 idk_1!19!2: y_0!1_2!4 - x_2!4 <= 0
 sum_1!20: y_0!2_2!4 - x_0!2 - x_2!4 >= -1
 idk_1!20!0: y_0!2_2!4 - x_0!2 <= 0
 idk_1!20!2: y_0!2_2!4 - x_2!4 <= 0
 sum_1!21: y_0!3_2!4 - x_0!3 - x_2!4 >= -1
 idk_1!21!0: y_0!3_2!4 - x_0!3 <= 0
 idk_1!21!2: y_0!3_2!4 - x_2!4 <= 0
 sum_1!22: y_0!4_2!4 - x_0!4 - x_2!4 >= -1
 idk_1!22!0: y_0!4_2!4 - x_0!4 <= 0
 idk_1!22!2: y_0!4_2!4 - x_2!4 <= 0
 sum_1!23: y_0!5_2!4 - x_0!5 - x_2!4 >= -1
 idk_1!23!0: y_0!5_2!4 - x_0!5 <= 0
 idk_1!23!2: y_0!5_2!4 - x_2!4 <= 0
 sum_1!24: y_0!6_2!4 - x_0!6 - x_2!4 >= -1
 idk_1!24!0: y_0!6_2!4 - x_0!6 <= 0
 idk_1!24!2: y_0!6_2!4 - x_2!4 <= 0
 sum_1!25: y_0!1_2!5 - x_0!1 - x_2!5 >= -1
 idk_1!25!0: y_0!1_2!5 - x_0!1 <= 0
 idk_1!25!2: y_0!1_2!5 - x_2!5 <= 0
 sum_1!26: y_0!2_2!5 - x_0!2 - x_2!5 >= -1
 idk_1!26!0: y_0!2_2!5 - x_0!2 <= 0
 idk_1!26!2: y_0!2_2!5 - x_2!5 <= 0
 sum_1!27: y_0!3_2!5 - x_0!3 - x_2!5 >= -1
 idk_1!27!0: y_0!3_2!5 - x_0!3 <= 0
 idk_1!27!2: y_0!3_2!5 - x_2!5 <= 0
 sum_1!28: y_0!4_2!5 - x_0!4 - x_2!5 >= -1
 idk_1!28!0: y_0!4_2!5 - x_0!4 <= 0
 idk_1!28!2: y_0!4_2!5 - x_2!5 <= 0
 sum_1!29: y_0!5_2!5 - x_0!5 - x_2!5 >= -1
 idk_1!29!0: y_0!5_2!5 - x_0!5 <= 0
 idk_1!29!2: y_0!5_2!5 - x_2!5 <= 0
 sum_1!30: y_0!6_2!5 - x_0!6 - x_2!5 >= -1
 idk_1!30!0: y_0!6_2!5 - x_0!6 <= 0
 idk_1!30!2: y_0!6_2!5 - x_2!5 <= 0
 sum_1!31: y_0!1_2!6 - x_0!1 - x_2!6 >= -1
 idk_1!31!0: y_0!1_2!6 - x_0!1 <= 0
 idk_1!31!2: y_0!1_2!6 - x_2!6 <= 0
 sum_1!32: y_0!2_2!6 - x_0!2 - x_2!6 >= -1
 idk_1!32!0: y_0!2_2!6 - x_0!2 <= 0
 idk_1!32!2: y_0!2_2!6 - x_2!6 <= 0
 sum_1!33: y_0!3_2!6 - x_0!3 - x_2!6 >= -1
 idk_1!33!0: y_0!3_2!6 - x_0!3 <= 0
 idk_1!33!2: y_0!3_2!6 - x_2!6 <= 0
 sum_1!34: y_0!4_2!6 - x_0!4 - x_2!6 >= -1
 idk_1!34!0: y_0!4_2!6 - x_0!4 <= 0
 idk_1!34!2: y_0!4_2!6 - x_2!6 <= 0
 sum_1!35: y_0!5_2!6 - x_0!5 - x_2!6 >= -1
 idk_1!35!0: y_0!5_2!6 - x_0!5 <= 0
 idk_1!35!2: y_0!5_2!6 - x_2!6 <= 0
 sum_1!36: y_0!6_2!6 - x_0!6 - x_2!6 >= -1
 idk_1!36!0: y_0!6_2!6 - x_0!6 <= 0
 idk_1!36!2: y_0!6_2!6 - x_2!6 <= 0
 epc_2!1: +43.46688797151438 y_0!1_1!1 -15.923317458831292 y_0!2_1!1 -27.86613059668322 y_0!3_1!1 +31.812966187621413 y_0!4_1!1 -27.74193435081216 y_0!5_1!1 -49.44205374746113 y_0!6_1!1 -62.72455176992424 y_0!1_1!2 -16.16387331267208 y_0!2_1!2 +24.081235871832064 y_0!3_1!2 +8.953081346683518 y_0!4_1!2 +85.50254139169397 y_0!5_1!2 +56.31268620780992 y_0!6_1!2 -29.58516452527293 y_0!1_1!3 -70.79143696329753 y_0!2_1!3 +65.17465049323476 y_0!3_1!3 -15.543307705710305 y_0!4_1!3 -78.7211239805073 y_0!5_1!3 +87.13341317666368 y_0!6_1!3 -17.054556510845714 y_0!1_1!4 +97.7548728810848 y_0!2_1!4 -73.13269693426926 y_0!3_1!4 -38.10423886119756 y_0!4_1!4 -66.17647104831023 y_0!5_1!4 +96.78496733986307 y_0!6_1!4 -95.88575697411947 y_0!1_1!5 +74.99831200780551 y_0!2_1!5 +28.771406965244893 y_0!3_1!5 +32.032372228009194 y_0!4_1!5 -44.087478027365655 y_0!5_1!5 -65.79681059511037 y_0!6_1!5 -86.95062406450656 y_0!1_1!6 -30.24240860450567 y_0!2_1!6 +25.117103109709078 y_0!3_1!6 +24.97819947453324 y_0!4_1!6 +14.800280993408705 y_0!5_1!6 -94.05640700389677 y_0!6_1!6 + lambda_2!1 - mu_2 = 0
 epc_2!2: +93.63000802079725 y_0!1_1!1 +14.888057874708409 y_0!2_1!1 -96.59000200235377 y_0!3_1!1 -90.92138001244963 y_0!4_1!1 -1.2225039324151368 y_0!5_1!1 -97.04423751483662 y_0!6_1!1 -29.032402535425362 y_0!1_1!2 +36.00669610766042 y_0!2_1!2 -5.145831551548312 y_0!3_1!2 +56.370785944739225 y_0!4_1!2 -22.311706370892708 y_0!5_1!2 +72.30450348044647 y_0!6_1!2 +37.12290602688347 y_0!1_1!3 -68.97758898821735 y_0!2_1!3 +23.45120657416176 y_0!3_1!3 -0.37999752276074616 y_0!4_1!3 +8.723439757914903 y_0!5_1!3 -29.812028457121812 y_0!6_1!3 +22.643153621315776 y_0!1_1!4 +87.13459173289314 y_0!2_1!4 -52.14346688774809 y_0!3_1!4 -82.69251863754619 y_0!4_1!4 -31.711351788284375 y_0!5_1!4 +42.78730571755568 y_0!6_1!4 -36.72518097072448 y_0!1_1!5 -35.87247253783178 y_0!2_1!5 -26.014538601101478 y_0!3_1!5 -57.87402937219473 y_0!4_1!5 -49.47471739786291 y_0!5_1!5 -15.401016228022527 y_0!6_1!5 +78.45398916466601 y_0!1_1!6 +78.62692600917109 y_0!2_1!6 +39.55257253848913 y_0!3_1!6 -22.23532620625474 y_0!4_1!6 +87.54796244960161 y_0!5_1!6 +49.051380697063394 y_0!6_1!6 + lambda_2!2 - mu_2 = 0
 epc_2!3: -83.8136607636938 y_0!1_1!1 -40.52545809934935 y_0!2_1!1 -87.63713118631779 y_0!3_1!1 -99.11685156066636 y_0!4_1!1 -34.30017717962808 y_0!5_1!1 -96.88240762672113 y_0!6_1!1 -60.3823047624972 y_0!1_1!2 +26.118915163193265 y_0!2_1!2 -13.958980753319253 y_0!3_1!2 -66.33860688729223 y_0!4_1!2 -58.225461534588476 y_0!5_1!2 +86.65890443710941 y_0!6_1!2 +11.501832291097273 y_0!1_1!3 +27.141412809561103 y_0!2_1!3 +99.39980190037454 y_0!3_1!3 +1.2723116941461683 y_0!4_1!3 -25.495379749046037 y_0!5_1!3 -40.65588052437303 y_0!6_1!3 +67.05962358903247 y_0!1_1!4 -87.41164399856147 y_0!2_1!4 -86.1503318205923 y_0!3_1!4 -17.22064163873543 y_0!4_1!4 +66.58142452829941 y_0!5_1!4 +84.79056052522131 y_0!6_1!4 +12.18111804350626 y_0!1_1!5 +90.13887851420677 y_0!2_1!5 -62.19766997258536 y_0!3_1!5 +58.66819217542073 y_0!4_1!5 -86.40695547059525 y_0!5_1!5 -54.710220654947236 y_0!6_1!5 -83.03555577035337 y_0!1_1!6 -89.59442977137792 y_0!2_1!6 -65.7886783553885 y_0!3_1!6 +29.452882636750843 y_0!4_1!6 +46.70590838593583 y_0!5_1!6 -76.03363548130878 y_0!6_1!6 + lambda_2!3 - mu_2 = 0
 epc_2!4: -65.7489367229676 y_0!1_1!1 +60.567787602121854 y_0!2_1!1 -50.86417608419145 y_0!3_1!1 -5.843351942642002 y_0!4_1!1 -30.53659134186124 y_0!5_1!1 +97.94791265854323 y_0!6_1!1 +14.770075318006576 y_0!1_1!2 +28.427009936430267 y_0!2_1!2 -16.950366228160846 y_0!3_1!2 -57.81971621864972 y_0!4_1!2 +75.1442956195279 y_0!5_1!2 -89.79944150427308 y_0!6_1!2 -63.96560283555417 y_0!1_1!3 +81.8265472847261 y_0!2_1!3 -64.29085816464038 y_0!3_1!3 +24.99030996860847 y_0!4_1!3 -95.24572662537518 y_0!5_1!3 -76.16688966235458 y_0!6_1!3 -51.84784225143715 y_0!1_1!4 -67.20412627027883 y_0!2_1!4 -1.468519330982602 y_0!3_1!4 -26.34006876933475 y_0!4_1!4 +97.5796501801666 y_0!5_1!4 +96.2460602299864 y_0!6_1!4 +68.76709979499589 y_0!1_1!5 +3.989099651920853 y_0!2_1!5 +70.03089477731527 y_0!3_1!5 +43.68043778412064 y_0!4_1!5 +92.60184342830533 y_0!5_1!5 +67.47576533203232 y_0!6_1!5 +49.58620829227826 y_0!1_1!6 -40.1603500693622 y_0!2_1!6 +19.956710348854727 y_0!3_1!6 +69.35571589862354 y_0!4_1!6 -28.130583929393055 y_0!5_1!6 +54.06057608323073 y_0!6_1!6 + lambda_2!4 - mu_2 = 0
 epc_2!5: -27.820199283062763 y_0!1_1!1 -80.17468698951807 y_0!2_1!1 +32.03429211621284 y_0!3_1!1 -43.15072863888532 y_0!4_1!1 -26.31027845305654 y_0!5_1!1 +33.96112414223762 y_0!6_1!1 +10.363639753274455 y_0!1_1!2 +40.43095413841388 y_0!2_1!2 +84.91995437344048 y_0!3_1!2 -61.45180861622856 y_0!4_1!2 +37.3987837573425 y_0!5_1!2 -52.64695711925314 y_0!6_1!2 +85.5327521113189 y_0!1_1!3 -19.46266090491619 y_0!2_1!3 -26.943833834296484 y_0!3_1!3 -56.556320133529695 y_0!4_1!3 -68.71487376773852 y_0!5_1!3 +10.953596844938701 y_0!6_1!3 +20.476993380160764 y_0!1_1!4 -12.595174939941643 y_0!2_1!4 +76.09351107217051 y_0!3_1!4 +40.929273606796556 y_0!4_1!4 -64.60520486882058 y_0!5_1!4 +29.04551598911334 y_0!6_1!4 +12.757850676310852 y_0!1_1!5 +33.13685707902289 y_0!2_1!5 +25.594868783087875 y_0!3_1!5 +11.637489511715614 y_0!4_1!5 +41.469844077315145 y_0!5_1!5 +2.24844511604239 y_0!6_1!5 +62.578668828077554 y_0!1_1!6 -38.89810910508986 y_0!2_1!6 -75.3558632362504 y_0!3_1!6 +52.14994891113071 y_0!4_1!6 +48.835213558387125 y_0!5_1!6 -4.287620172145367 y_0!6_1!6 + lambda_2!5 - mu_2 = 0
 epc_2!6: -70.22458106170966 y_0!1_1!1 +75.48999771220417 y_0!2_1!1 +99.16071551661628 y_0!3_1!1 +84.72649245754772 y_0!4_1!1 -1.061735228030301 y_0!5_1!1 -17.255231843910764 y_0!6_1!1 -96.74340159986114 y_0!1_1!2 -77.16629819353962 y_0!2_1!2 +14.210818608761116 y_0!3_1!2 -86.66808722346364 y_0!4_1!2 -60.62475405134629 y_0!5_1!2 -30.464853397161136 y_0!6_1!2 -47.28264407530875 y_0!1_1!3 -89.59208843710698 y_0!2_1!3 +5.071781998497357 y_0!3_1!3 -71.4533922833806 y_0!4_1!3 -56.8511924442195 y_0!5_1!3 +13.83507032086439 y_0!6_1!3 -78.84065358218777 y_0!1_1!4 -87.95719464853613 y_0!2_1!4 +47.53452633872834 y_0!3_1!4 +42.40572871198012 y_0!4_1!4 +48.75430075120323 y_0!5_1!4 +48.037740097525216 y_0!6_1!4 -2.2975094542129 y_0!1_1!5 +96.76294011601703 y_0!2_1!5 -63.16309313263273 y_0!3_1!5 -53.57770006373703 y_0!4_1!5 -84.72073588143397 y_0!5_1!5 +18.55834882424898 y_0!6_1!5 -10.957910075824003 y_0!1_1!6 +40.15692980559999 y_0!2_1!6 +37.24514619715745 y_0!3_1!6 +89.23965264491687 y_0!4_1!6 -96.56603473391314 y_0!5_1!6 -37.156276045790015 y_0!6_1!6 + lambda_2!6 - mu_2 = 0
 dc_2: x_2!1 + x_2!2 + x_2!3 + x_2!4 + x_2!5 + x_2!6 = 1
 bc_2!1: lambda_2!1 +298.5166534610409 x_2!1 <= 298.5166534610409
 bc_2!2: lambda_2!2 +298.5166534610409 x_2!2 <= 298.5166534610409
 bc_2!3: lambda_2!3 +298.5166534610409 x_2!3 <= 298.5166534610409
 bc_2!4: lambda_2!4 +298.5166534610409 x_2!4 <= 298.5166534610409
 bc_2!5: lambda_2!5 +298.5166534610409 x_2!5 <= 298.5166534610409
 bc_2!6: lambda_2!6 +298.5166534610409 x_2!6 <= 298.5166534610409
 sum_2!1: y_0!1_1!1 - x_0!1 - x_1!1 >= -1
 idk_2!1!0: y_0!1_1!1 - x_0!1 <= 0
 idk_2!1!1: y_0!1_1!1 - x_1!1 <= 0
 sum_2!2: y_0!2_1!1 - x_0!2 - x_1!1 >= -1
 idk_2!2!0: y_0!2_1!1 - x_0!2 <= 0
 idk_2!2!1: y_0!2_1!1 - x_1!1 <= 0
 sum_2!3: y_0!3_1!1 - x_0!3 - x_1!1 >= -1
 idk_2!3!0: y_0!3_1!1 - x_0!3 <= 0
 idk_2!3!1: y_0!3_1!1 - x_1!1 <= 0
 sum_2!4: y_0!4_1!1 - x_0!4 - x_1!1 >= -1
 idk_2!4!0: y_0!4_1!1 - x_0!4 <= 0
 idk_2!4!1: y_0!4_1!1 - x_1!1 <= 0
 sum_2!5: y_0!5_1!1 - x_0!5 - x_1!1 >= -1
 idk_2!5!0: y_0!5_1!1 - x_0!5 <= 0
 idk_2!5!1: y_0!5_1!1 - x_1!1 <= 0
 sum_2!6: y_0!6_1!1 - x_0!6 - x_1!1 >= -1
 idk_2!6!0: y_0!6_1!1 - x_0!6 <= 0
 idk_2!6!1: y_0!6_1!1 - x_1!1 <= 0
 sum_2!7: y_0!1_1!2 - x_0!1 - x_1!2 >= -1
 idk_2!7!0: y_0!1_1!2 - x_0!1 <= 0
 idk_2!7!1: y_0!1_1!2 - x_1!2 <= 0
 sum_2!8: y_0!2_1!2 - x_0!2 - x_1!2 >= -1
 idk_2!8!0: y_0!2_1!2 - x_0!2 <= 0
 idk_2!8!1: y_0!2_1!2 - x_1!2 <= 0
 sum_2!9: y_0!3_1!2 - x_0!3 - x_1!2 >= -1
 idk_2!9!0: y_0!3_1!2 - x_0!3 <= 0
 idk_2!9!1: y_0!3_1!2 - x_1!2 <= 0
 sum_2!10: y_0!4_1!2 - x_0!4 - x_1!2 >= -1
 idk_2!10!0: y_0!4_1!2 - x_0!4 <= 0
 idk_2!10!1: y_0!4_1!2 - x_1!2 <= 0
 sum_2!11: y_0!5_1!2 - x_0!5 - x_1!2 >= -1
 idk_2!11!0: y_0!5_1!2 - x_0!5 <= 0
 idk_2!11!1: y_0!5_1!2 - x_1!2 <= 0
 sum_2!12: y_0!6_1!2 - x_0!6 - x_1!2 >= -1
 idk_2!12!0: y_0!6_1!2 - x_0!6 <= 0
 idk_2!12!1: y_0!6_1!2 - x_1!2 <= 0
 sum_2!13: y_0!1_1!3 - x_0!1 - x_1!3 >= -1
 idk_2!13!0: y_0!1_1!3 - x_0!1 <= 0
 idk_2!13!1: y_0!1_1!3 - x_1!3 <= 0
 sum_2!14: y_0!2_1!3 - x_0!2 - x_1!3 >= -1
 idk_2!14!0: y_0!2_1!3 - x_0!2 <= 0
 idk_2!14!1: y_0!2_1!3 - x_1!3 <= 0
 sum_2!15: y_0!3_1!3 - x_0!3 - x_1!3 >= -1
 idk_2!15!0: y_0!3_1!3 - x_0!3 <= 0
 idk_2!15!1: y_0!3_1!3 - x_1!3 <= 0
 sum_2!16: y_0!4_1!3 - x_0!4 - x_1!3 >= -1
 idk_2!16!0: y_0!4_1!3 - x_0!4 <= 0
 idk_2!16!1: y_0!4_1!3 - x_1!3 <= 0
 sum_2!17: y_0!5_1!3 - x_0!5 - x_1!3 >= -1
 idk_2!17!0: y_0!5_1!3 - x_0!5 <= 0
 idk_2!17!1: y_0!5_1!3 - x_1!3 <= 0
 sum_2!18: y_0!6_1!3 - x_0!6 - x_1!3 >= -1
 idk_2!18!0: y_0!6_1!3 - x_0!6 <= 0
 idk_2!18!1: y_0!6_1!3 - x_1!3 <= 0
 sum_2!19: y_0!1_1!4 - x_0!1 - x_1!4 >= -1
 idk_2!19!0: y_0!1_1!4 - x_0!1 <= 0
 idk_2!19!1: y_0!1_1!4 - x_1!4 <= 0
 sum_2!20: y_0!2_1!4 - x_0!2 - x_1!4 >= -1
 idk_2!20!0: y_0!2_1!4 - x_0!2 <= 0
 idk_2!20!1: y_0!2_1!4 - x_1!4 <= 0
 sum_2!21: y_0!3_1!4 - x_0!3 - x_1!4 >= -1
 idk_2!21!0: y_0!3_1!4 - x_0!3 <= 0
 idk_2!21!1: y_0!3_1!4 - x_1!4 <= 0
 sum_2!22: y_0!4_1!4 - x_0!4 - x_1!4 >= -1
 idk_2!22!0: y_0!4_1!4 - x_0!4 <= 0
 idk_2!22!1: y_0!4_1!4 - x_1!4 <= 0
 sum_2!23: y_0!5_1!4 - x_0!5 - x_1!4 >= -1
 idk_2!23!0: y_0!5_1!4 - x_0!5 <= 0
 idk_2!23!1: y_0!5_1!4 - x_1!4 <= 0
 sum_2!24: y_0!6_1!4 - x_0!6 - x_1!4 >= -1
 idk_2!24!0: y_0!6_1!4 - x_0!6 <= 0
 idk_2!24!1: y_0!6_1!4 - x_1!4 <= 0
 sum_2!25: y_0!1_1!5 - x_0!1 - x_1!5 >= -1
 idk_2!25!0: y_0!1_1!5 - x_0!1 <= 0
 idk_2!25!1: y_0!1_1!5 - x_1!5 <= 0
 sum_2!26: y_0!2_1!5 - x_0!2 - x_1!5 >= -1
 idk_2!26!0: y_0!2_1!5 - x_0!2 <= 0
 idk_2!26!1: y_0!2_1!5 - x_1!5 <= 0
 sum_2!27: y_0!3_1!5 - x_0!3 - x_1!5 >= -1
 idk_2!27!0: y_0!3_1!5 - x_0!3 <= 0
 idk_2!27!1: y_0!3_1!5 - x_1!5 <= 0
 sum_2!28: y_0!4_1!5 - x_0!4 - x_1!5 >= -1
 idk_2!28!0: y_0!4_1!5 - x_0!4 <= 0
 idk_2!28!1: y_0!4_1!5 - x_1!5 <= 0
 sum_2!29: y_0!5_1!5 - x_0!5 - x_1!5 >= -1
 idk_2!29!0: y_0!5_1!5 - x_0!5 <= 0
 idk_2!29!1: y_0!5_1!5 - x_1!5 <= 0
 sum_2!30: y_0!6_1!5 - x_0!6 - x_1!5 >= -1
 idk_2!30!0: y_0!6_1!5 - x_0!6 <= 0
 idk_2!30!1: y_0!6_1!5 - x_1!5 <= 0
 sum_2!31: y_0!1_1!6 - x_0!1 - x_1!6 >= -1
 idk_2!31!0: y_0!1_1!6 - x_0!1 <= 0
 idk_2!31!1: y_0!1_1!6 - x_1!6 <= 0
 sum_2!32: y_0!2_1!6 - x_0!2 - x_1!6 >= -1
 idk_2!32!0: y_0!2_1!6 - x_0!2 <= 0
 idk_2!32!1: y_0!2_1!6 - x_1!6 <= 0
 sum_2!33: y_0!3_1!6 - x_0!3 - x_1!6 >= -1
 idk_2!33!0: y_0!3_1!6 - x_0!3 <= 0
 idk_2!33!1: y_0!3_1!6 - x_1!6 <= 0
 sum_2!34: y_0!4_1!6 - x_0!4 - x_1!6 >= -1
 idk_2!34!0: y_0!4_1!6 - x_0!4 <= 0
 idk_2!34!1: y_0!4_1!6 - x_1!6 <= 0
 sum_2!35: y_0!5_1!6 - x_0!5 - x_1!6 >= -1
 idk_2!35!0: y_0!5_1!6 - x_0!5 <= 0
 idk_2!35!1: y_0!5_1!6 - x_1!6 <= 0
 sum_2!36: y_0!6_1!6 - x_0!6 - x_1!6 >= -1
 idk_2!36!0: y_0!6_1!6 - x_0!6 <= 0
 idk_2!36!1: y_0!6_1!6 - x_1!6 <= 0
Bounds
 mu_0 free
 mu_1 free
 mu_2 free
Binary
 x_0!1 x_0!2 x_0!3 x_0!4 x_0!5 x_0!6 x_1!1 x_1!2 x_1!3 x_1!4 x_1!5 x_1!6 x_2!1 x_2!2 x_2!3 x_2!4 x_2!5 x_2!6
End
